data/solutions/recovery/wellformed/intermediate/binding/wellformed_intermediate_instance73/12.sol
Elapsed time: 0.06
Upper bound: 4705.0
Planning weighted value: 211929188.0
C[0]=4705.0
C[1]=4633.0
C[2]=4614.0
C[3]=4612.0
C[4]=4554.0
C[5]=4457.0
C[6]=4344.0
C[7]=3740.0
C[8]=3602.0
C[9]=3595.0
C[10]=2978.0
C[11]=2553.0
C[12]=2361.0
C[13]=2167.0
C[14]=1647.0
C[15]=0.0
y[0]=0
y[1]=8
y[2]=5
y[3]=4
y[4]=8
y[5]=2
y[6]=7
y[7]=4
y[8]=6
y[9]=12
y[10]=11
y[11]=14
y[12]=4
y[13]=5
y[14]=11
y[15]=4
y[16]=1
y[17]=1
y[18]=3
y[19]=14
y[20]=2
y[21]=8
y[22]=9
y[23]=13
y[24]=1
y[25]=0
y[26]=6
y[27]=0
y[28]=13
y[29]=10
y[30]=10
y[31]=1
y[32]=6
y[33]=0
y[34]=11
y[35]=1
y[36]=0
y[37]=0
y[38]=6
y[39]=0
y[40]=4
y[41]=1
y[42]=5
y[43]=8
y[44]=10
y[45]=0
y[46]=6
y[47]=5
y[48]=0
y[49]=10
y[50]=9
y[51]=13
y[52]=12
y[53]=5
y[54]=1
y[55]=3
y[56]=9
y[57]=7
y[58]=12
y[59]=14
y[60]=2
y[61]=6
y[62]=7
y[63]=13
y[64]=9
y[65]=0
y[66]=11
y[67]=14
y[68]=3
y[69]=11
y[70]=7
y[71]=9
y[72]=13
y[73]=7
y[74]=11
y[75]=7
y[76]=4
y[77]=2
y[78]=0
y[79]=5
y[80]=4
y[81]=4
y[82]=10
y[83]=12
y[84]=2
y[85]=12
y[86]=3
y[87]=11
y[88]=3
y[89]=4
y[90]=1
y[91]=0
y[92]=1
y[93]=14
y[94]=0
y[95]=5
y[96]=3
y[97]=7
y[98]=10
y[99]=0
y[100]=6
y[101]=8
y[102]=3
y[103]=9
y[104]=2
y[105]=5
y[106]=1
y[107]=7
