data/solutions/recovery/wellformed/intermediate/binding/wellformed_intermediate_instance73/12.log

Log started (V12.6.3.0) Fri Apr 20 17:50:01 2018

New value for default parallel thread count: 1

Problem '/tmp/tmpm0NvBZ.pyomo.lp' read.
Read time = 0.02 sec. (2.14 ticks)

Problem name         : /tmp/tmpm0NvBZ.pyomo.lp
Objective sense      : Minimize
Variables            :    1746  [Nneg: 1,  Binary: 1728,  General Integer: 17]
Objective nonzeros   :       1
Linear constraints   :     250  [Less: 124,  Equal: 126]
  Nonzeros           :  155797
  RHS nonzeros       :     109

Variables            : Min LB: 0.000000         Max UB: 1.000000       
Objective nonzeros   : Min   : 1.000000         Max   : 1.000000       
Linear constraints   :
  Nonzeros           : Min   : 1.000000         Max   : 1715.000       
  RHS nonzeros       : Min   : 1.000000         Max   : 1.000000       
Tried aggregator 2 times.
MIP Presolve eliminated 207 rows and 1535 columns.
Aggregator did 15 substitutions.
Reduced MIP has 28 rows, 196 columns, and 405 nonzeros.
Reduced MIP has 195 binaries, 1 generals, 0 SOSs, and 0 indicators.
Presolve time = 0.01 sec. (10.48 ticks)
Found incumbent of value 16586.000000 after 0.01 sec. (14.21 ticks)
Probing time = 0.00 sec. (0.24 ticks)
Tried aggregator 1 time.
Reduced MIP has 28 rows, 196 columns, and 405 nonzeros.
Reduced MIP has 195 binaries, 1 generals, 0 SOSs, and 0 indicators.
Presolve time = 0.00 sec. (0.33 ticks)
Probing time = 0.00 sec. (0.24 ticks)
Clique table members: 13.
MIP emphasis: balance optimality and feasibility.
MIP search method: dynamic search.
Parallel mode: none, using 1 thread.
Root relaxation solution time = 0.00 sec. (0.21 ticks)

        Nodes                                         Cuts/
   Node  Left     Objective  IInf  Best Integer    Best Bound    ItCnt     Gap

*     0+    0                        16586.0000     4705.0000            71.63%
      0     0     4705.0000    12    16586.0000     4705.0000       32   71.63%
*     0+    0                         4705.0000     4705.0000             0.00%
      0     0        cutoff           4705.0000     4705.0000       32    0.00%
Elapsed time = 0.01 sec. (15.58 ticks, tree = 0.01 MB, solutions = 2)

Root node processing (before b&c):
  Real time             =    0.01 sec. (15.64 ticks)
Sequential b&c:
  Real time             =    0.00 sec. (0.00 ticks)
                          ------------
Total (root+branch&cut) =    0.01 sec. (15.64 ticks)

Solution pool: 2 solutions saved.

MIP - Integer optimal solution:  Objective =  4.7050000000e+03
Solution time =    0.01 sec.  Iterations = 32  Nodes = 0
Deterministic time = 15.64 ticks  (1106.32 ticks/sec)


Incumbent solution written to file '/tmp/tmpq4JuTW.cplex.sol'.

Log started (V12.6.3.0) Fri Apr 20 17:53:04 2018

New value for default parallel thread count: 1

Problem '/tmp/tmpOoUSDC.pyomo.lp' read.
Read time = 0.03 sec. (2.14 ticks)

Problem name         : /tmp/tmpOoUSDC.pyomo.lp
Objective sense      : Minimize
Variables            :    1746  [Nneg: 1,  Binary: 1728,  General Integer: 17]
Objective nonzeros   :       1
Linear constraints   :     250  [Less: 124,  Equal: 126]
  Nonzeros           :  155797
  RHS nonzeros       :     109

Variables            : Min LB: 0.000000         Max UB: 1.000000       
Objective nonzeros   : Min   : 1.000000         Max   : 1.000000       
Linear constraints   :
  Nonzeros           : Min   : 1.000000         Max   : 1715.000       
  RHS nonzeros       : Min   : 1.000000         Max   : 1.000000       
Tried aggregator 2 times.
MIP Presolve eliminated 207 rows and 1535 columns.
Aggregator did 15 substitutions.
Reduced MIP has 28 rows, 196 columns, and 405 nonzeros.
Reduced MIP has 195 binaries, 1 generals, 0 SOSs, and 0 indicators.
Presolve time = 0.01 sec. (10.48 ticks)
Found incumbent of value 16586.000000 after 0.01 sec. (14.21 ticks)
Probing time = 0.00 sec. (0.24 ticks)
Tried aggregator 1 time.
Reduced MIP has 28 rows, 196 columns, and 405 nonzeros.
Reduced MIP has 195 binaries, 1 generals, 0 SOSs, and 0 indicators.
Presolve time = 0.00 sec. (0.33 ticks)
Probing time = 0.00 sec. (0.24 ticks)
Clique table members: 13.
MIP emphasis: balance optimality and feasibility.
MIP search method: dynamic search.
Parallel mode: none, using 1 thread.
Root relaxation solution time = 0.00 sec. (0.21 ticks)

        Nodes                                         Cuts/
   Node  Left     Objective  IInf  Best Integer    Best Bound    ItCnt     Gap

*     0+    0                        16586.0000     4705.0000            71.63%
      0     0     4705.0000    12    16586.0000     4705.0000       32   71.63%
*     0+    0                         4705.0000     4705.0000             0.00%
      0     0        cutoff           4705.0000     4705.0000       32    0.00%
Elapsed time = 0.01 sec. (15.58 ticks, tree = 0.01 MB, solutions = 2)

Root node processing (before b&c):
  Real time             =    0.01 sec. (15.64 ticks)
Sequential b&c:
  Real time             =    0.00 sec. (0.00 ticks)
                          ------------
Total (root+branch&cut) =    0.01 sec. (15.64 ticks)

Solution pool: 2 solutions saved.

MIP - Integer optimal solution:  Objective =  4.7050000000e+03
Solution time =    0.01 sec.  Iterations = 32  Nodes = 0
Deterministic time = 15.64 ticks  (1105.37 ticks/sec)


Incumbent solution written to file '/tmp/tmpL346yM.cplex.sol'.
